units real

boundary p p p

timestep 1

neighbor    2.0 bin
neigh_modify    delay 5

atom_style      em2
pair_style      em2 136.0

#atom_modify     sort 0 0

read_data       data.em2

pair_coeff      * * em2_par_file.dat 136.0

group           mem type 1
group           prot type 2

variable        st equal step
variable        epot equal pe
variable        ekin equal ke
variable        etot equal etotal

variable        rand equal floor(random(1,99999999,1))
velocity        all create 308.0 ${rand} dist gaussian

compute         phi all em2_phi/atom
compute         dphi all em2_dphi/atom
#compute         rho all em2_rho/atom
#compute         xi all em2_xi/atom

fix             1 all nve/em2 integration_conf.dat
#fix             1 all nvt/em2 temp 308 308 100 integration_conf.dat
#fix             1 all nvt temp 308 308 100
#fix             1 all nve
fix             5 all print 1 "${st} ${epot} ${ekin} ${etot}" screen no file energy.dat title "Step Potential_Energy Kinetic_Energy Total_Energy"

#dump            1 all custom 1000 dump.force id type xs ys zs fx fy fz tqx tqy tqz c_dphi[1] c_dphi[2] c_rho[1] c_rho[2]
dump            1 all custom 1000 dump.force id type xs ys zs fx fy fz tqx tqy tqz c_dphi[1] c_dphi[2]
#dump            1 mem custom 1000 dump.force id type xs ys zs fx fy fz tqx tqy tqz c_dphi[1] c_dphi[2]
#dump            2 all custom 1000 dump.xi id c_xi[1] c_xi[2] c_xi[3] c_xi[4] c_xi[5] c_xi[6]

dump_modify     1 sort id
#dump_modify     2 sort id

thermo          1

#restart         1000000 restart

run             10
